c description: tiling of 
c generator: CNFgen (0.9.0)
c copyright: (C) 2012-2020 Massimo Lauria <massimo.lauria@uniroma1.it>
c url: https://massimolauria.net/cnfgen
c
p cnf 20 250
-1 -2 0
-1 -4 0
-1 -8 0
-1 -12 0
-1 -15 0
-1 -17 0
-2 -4 0
-2 -8 0
-2 -12 0
-2 -15 0
-2 -17 0
-4 -8 0
-4 -12 0
-4 -15 0
-4 -17 0
-8 -12 0
-8 -15 0
-8 -17 0
-12 -15 0
-12 -17 0
-15 -17 0
1 2 4 8 12 15 17 0
-1 -2 0
-1 -8 0
-1 -9 0
-1 -10 0
-1 -13 0
-1 -14 0
-1 -20 0
-2 -8 0
-2 -9 0
-2 -10 0
-2 -13 0
-2 -14 0
-2 -20 0
-8 -9 0
-8 -10 0
-8 -13 0
-8 -14 0
-8 -20 0
-9 -10 0
-9 -13 0
-9 -14 0
-9 -20 0
-10 -13 0
-10 -14 0
-10 -20 0
-13 -14 0
-13 -20 0
-14 -20 0
1 2 8 9 10 13 14 20 0
-1 -2 0
-1 -8 0
-1 -13 0
-2 -8 0
-2 -13 0
-8 -13 0
1 2 8 13 0
-1 -2 0
-1 -11 0
-1 -13 0
-1 -19 0
-2 -11 0
-2 -13 0
-2 -19 0
-11 -13 0
-11 -19 0
-13 -19 0
1 2 11 13 19 0
-1 -4 0
-1 -9 0
-1 -11 0
-1 -12 0
-4 -9 0
-4 -11 0
-4 -12 0
-9 -11 0
-9 -12 0
-11 -12 0
1 4 9 11 12 0
-1 -5 0
-1 -7 0
-1 -10 0
-1 -11 0
-5 -7 0
-5 -10 0
-5 -11 0
-7 -10 0
-7 -11 0
-10 -11 0
1 5 7 10 11 0
-1 -5 0
-1 -16 0
-1 -17 0
-1 -20 0
-5 -16 0
-5 -17 0
-5 -20 0
-16 -17 0
-16 -20 0
-17 -20 0
1 5 16 17 20 0
-1 -14 0
1 14 0
-3 -4 0
-3 -6 0
-3 -8 0
-3 -11 0
-3 -15 0
-3 -17 0
-3 -20 0
-4 -6 0
-4 -8 0
-4 -11 0
-4 -15 0
-4 -17 0
-4 -20 0
-6 -8 0
-6 -11 0
-6 -15 0
-6 -17 0
-6 -20 0
-8 -11 0
-8 -15 0
-8 -17 0
-8 -20 0
-11 -15 0
-11 -17 0
-11 -20 0
-15 -17 0
-15 -20 0
-17 -20 0
3 4 6 8 11 15 17 20 0
-3 -7 0
-3 -10 0
-3 -11 0
-3 -16 0
-3 -19 0
-7 -10 0
-7 -11 0
-7 -16 0
-7 -19 0
-10 -11 0
-10 -16 0
-10 -19 0
-11 -16 0
-11 -19 0
-16 -19 0
3 7 10 11 16 19 0
-3 -7 0
-3 -12 0
-3 -16 0
-3 -19 0
-3 -20 0
-7 -12 0
-7 -16 0
-7 -19 0
-7 -20 0
-12 -16 0
-12 -19 0
-12 -20 0
-16 -19 0
-16 -20 0
-19 -20 0
3 7 12 16 19 20 0
-3 -7 0
-3 -16 0
-3 -17 0
-7 -16 0
-7 -17 0
-16 -17 0
3 7 16 17 0
-4 -8 0
-4 -9 0
-4 -15 0
-4 -17 0
-8 -9 0
-8 -15 0
-8 -17 0
-9 -15 0
-9 -17 0
-15 -17 0
4 8 9 15 17 0
-4 -8 0
-4 -15 0
-4 -17 0
-8 -15 0
-8 -17 0
-15 -17 0
4 8 15 17 0
-5 -8 0
-5 -9 0
-5 -12 0
-5 -16 0
-5 -19 0
-8 -9 0
-8 -12 0
-8 -16 0
-8 -19 0
-9 -12 0
-9 -16 0
-9 -19 0
-12 -16 0
-12 -19 0
-16 -19 0
5 8 9 12 16 19 0
-5 -10 0
-5 -12 0
-5 -20 0
-10 -12 0
-10 -20 0
-12 -20 0
5 10 12 20 0
-6 -17 0
6 17 0
-7 -9 0
-7 -10 0
-7 -11 0
-7 -13 0
-7 -17 0
-7 -18 0
-9 -10 0
-9 -11 0
-9 -13 0
-9 -17 0
-9 -18 0
-10 -11 0
-10 -13 0
-10 -17 0
-10 -18 0
-11 -13 0
-11 -17 0
-11 -18 0
-13 -17 0
-13 -18 0
-17 -18 0
7 9 10 11 13 17 18 0
-7 -12 0
-7 -13 0
-7 -16 0
-7 -19 0
-12 -13 0
-12 -16 0
-12 -19 0
-13 -16 0
-13 -19 0
-16 -19 0
7 12 13 16 19 0
-11 -18 0
11 18 0